<number of tasks>
25

<cycle time>
25

<task times>
1 4
2 3
3 9
4 5
5 9
6 4
7 8
8 7
9 5
10 1
11 3
12 1
13 5
14 3
15 5
16 3
17 13
18 5
19 2
20 3
21 7
22 5
23 3
24 8
25 4

<precedence relations>
1,3
2,3
3,4
4,5
4,8
5,6
6,7
6,10
7,11
7,12
8,9
8,11
9,10
9,13
11,13
12,15
13,14
14,16
14,19
14,20
15,17
15,22
16,18
17,18
17,23
18,25
19,22
20,21
20,25
21,22
21,24
23,25

<setup times forward>
4,5:2
5,8:2
5,9:2
6,8:2
6,9:2
6,10:1
7,8:2
7,9:2
7,10:1
7,11:2
8,5:2
8,6:2
8,7:2
8,12:2
8,15:1
8,17:1
8,23:1
9,5:2
9,6:2
9,7:2
9,10:1
9,12:2
9,15:1
9,17:1
9,23:1
10,7:1
10,11:1
10,12:1
10,13:1
10,14:1
10,18:2
10,19:1
10,22:2
10,23:2
10,24:2
10,25:2
11,10:1
11,12:2
11,15:1
11,17:1
11,23:1
12,8:2
12,9:2
12,10:1
12,11:2
12,13:2
12,14:2
12,15:1
12,16:1
12,19:2
12,20:1
12,21:1
12,24:3
13,10:1
13,12:2
13,15:1
13,17:1
13,23:1
14,10:1
14,12:2
14,15:1
14,16:1
14,17:1
14,20:1
14,23:1
15,8:1
15,9:1
15,11:1
15,13:1
15,14:1
15,19:1
15,22:2
15,24:2
16,12:1
16,18:2
16,19:1
16,22:2
16,23:2
16,24:2
17,8:1
17,9:1
17,11:1
17,13:1
17,14:1
17,18:2
17,19:1
17,22:2
17,23:2
17,24:2
18,10:2
18,19:1
18,20:2
18,21:2
19,10:1
19,12:2
19,15:1
19,16:1
19,17:1
19,18:1
19,20:1
19,21:1
19,22:1
19,23:1
19,24:1
19,25:1
20,12:1
20,18:2
20,19:1
20,23:2
20,25:2
21,12:1
21,18:2
21,19:1
21,22:2
21,23:2
21,24:2
21,25:2
22,10:2
22,16:2
22,17:2
23,8:1
23,9:1
23,10:2
23,11:1
23,13:1
23,14:1
23,16:2
23,19:1
23,20:2
23,21:2
24,10:2
24,12:3
24,15:2
24,16:2
24,17:2
24,19:1
25,10:2
25,19:1
25,21:2

<setup times backward>
5,1:2
5,2:2
5,3:2
5,4:2
5,8:2
5,9:2
6,1:2
6,2:2
6,3:2
6,4:2
6,8:2
6,9:2
7,1:2
7,2:2
7,3:2
7,4:2
7,8:2
7,9:2
7,10:1
8,23:1
9,23:1
10,1:1
10,2:1
10,3:1
10,4:1
10,8:1
10,9:1
10,11:1
10,13:1
10,14:1
10,18:2
10,19:1
10,22:2
10,23:2
10,24:2
10,25:2
11,23:1
12,1:2
12,2:2
12,3:2
12,4:2
12,8:2
12,9:2
12,10:1
12,11:2
12,13:2
12,14:2
12,16:1
12,19:2
12,20:1
12,21:1
12,24:3
13,23:1
14,23:1
15,1:1
15,2:1
15,3:1
15,4:1
15,8:1
15,9:1
15,11:1
15,13:1
15,14:1
15,19:1
15,24:2
16,1:1
16,2:1
16,3:1
16,4:1
16,8:1
16,9:1
16,11:1
16,13:1
16,14:1
16,19:1
16,22:2
16,23:2
16,24:2
17,1:1
17,2:1
17,3:1
17,4:1
17,8:1
17,9:1
17,11:1
17,13:1
17,14:1
17,19:1
17,22:2
17,24:2
19,18:1
19,23:1
19,24:1
19,25:1
20,1:1
20,2:1
20,3:1
20,4:1
20,8:1
20,9:1
20,11:1
20,13:1
20,14:1
20,18:2
20,19:1
20,23:2
21,1:1
21,2:1
21,3:1
21,4:1
21,8:1
21,9:1
21,11:1
21,13:1
21,14:1
21,18:2
21,19:1
21,23:2
21,25:2

<end>

<optimal SALBP-1 value>
6


<rand seed>
467321153

<Lower Bounds>
Lm1=5
Lms1=5
Lm2=1
Lm3=2
Lm4=6
Best=6

<Optimal Stations (Iterations: 10)>
7
